
%FILE DATA:	Soccer Computational Problem for MiniZinc Models	%
%AUTHOR:	Jack Wall	%
%CONTACT:  	116397063@umail.ucc.ie			%
%LAST UPDATE:	03/16/2020, 15:01:13						%
%DESCRIPTION: 	165 games played with 45 games left				%


n=15; %number of teams

%Games to play
games=[|13,6|9,1|2,10|11,1|3,13|8,3|4,10|9,2|9,8|1,5|4,1|7,1|3,15|14,10|14,3|11,14|12,14|9,3|5,12|1,10|10,2|6,12|13,12|13,2|3,1|14,9|6,13|3,14|15,10|8,12|4,14|14,6|7,14|11,12|8,14|15,4|13,7|9,5|5,7|15,8|8,9|6,2|6,15|12,1|1,4|];

%Initial points
iPoints=[26,30,32,26,30,37,40,38,19,27,47,30,30,13,22];

%POSITION CONSTRAINTS
% [|teamID, operator, position|...]
% operators index:
%  1 for =  operator
%  2 for >  operator
%  3 for >= operator
%  4 for <  operator
%  5 for <= operator
positionConstraints=[|11,3,1|6,2,1|7,2,2|3,4,5|8,3,5|];